(set-info :smt-lib-version 2.6)
(set-logic QF_S)
(set-info :source |
Generated by: Hongjian Jiang, Oliver Markgraf, Daniel Stan, Anthony W. Lin, Philipp Ruemmer
Generated on: 2025-04-11
Application: Using String Solvers to solve RMC problems encoded as CHC over Strings
Target solver: cvc5, OSTRICH, Z3, Z3alpha, Z3-noodler
Time limit: 60.0
Benchmarks are extracted by running HornStr https://arg-git.informatik.uni-kl.de/pub/string-chc-lib on all benchmarks
provided in the repository and gathering the string queries sent to the string solvers.
|)
(declare-fun varout () String)
(assert (let ((a!1 (re.* (re.union (re.union (str.to_re "M") (str.to_re "U"))
                           (str.to_re "I")))))
  (str.in_re varout a!1)))
(declare-fun varin () String)
(assert (let ((a!1 (re.* (re.union (re.union (str.to_re "M") (str.to_re "U"))
                           (str.to_re "I")))))
  (str.in_re varin a!1)))
(declare-fun X () String)
(declare-fun isin () Bool)
(declare-fun isout () Bool)
(assert (and (= X "MI") (not isin) (= X varout) isout))
(assert (let ((a!1 (re.* (re.union (re.union (str.to_re "M") (str.to_re "U"))
                           (str.to_re "I")))))
(let ((a!2 (re.++ (re.union (re.union (str.to_re "M") (str.to_re "U"))
                            (str.to_re "I"))
                  a!1)))
  (str.in_re varout (re.++ a!1 (re.union (str.to_re "") a!2))))))
(check-sat)
